p cnf 175 219
1 2 3 4 0
1 2 3 5 0
1 2 3 6 0
1 2 3 7 0
1 2 4 5 0
1 2 4 6 0
1 2 4 7 0
1 2 5 6 0
1 2 5 7 0
1 2 6 7 0
1 3 4 5 0
1 3 4 6 0
1 3 4 7 0
1 3 5 6 0
1 3 5 7 0
1 3 6 7 0
1 4 5 6 0
1 4 5 7 0
1 4 6 7 0
1 5 6 7 0
2 3 4 5 0
2 3 4 6 0
2 3 4 7 0
2 3 5 6 0
2 3 5 7 0
2 3 6 7 0
2 4 5 6 0
2 4 5 7 0
2 4 6 7 0
2 5 6 7 0
3 4 5 6 0
3 4 5 7 0
3 4 6 7 0
3 5 6 7 0
4 5 6 7 0
8 9 10 11 12 13 14 0
15 16 17 18 19 20 21 0
22 23 24 25 26 0
22 23 24 25 27 0
22 23 24 25 28 0
22 23 24 26 27 0
22 23 24 26 28 0
22 23 24 27 28 0
22 23 25 26 27 0
22 23 25 26 28 0
22 23 25 27 28 0
22 23 26 27 28 0
22 24 25 26 27 0
22 24 25 26 28 0
22 24 25 27 28 0
22 24 26 27 28 0
22 25 26 27 28 0
23 24 25 26 27 0
23 24 25 26 28 0
23 24 25 27 28 0
23 24 26 27 28 0
23 25 26 27 28 0
24 25 26 27 28 0
29 30 31 32 33 34 35 0
36 37 38 39 0
36 37 38 40 0
36 37 38 41 0
36 37 38 42 0
36 37 39 40 0
36 37 39 41 0
36 37 39 42 0
36 37 40 41 0
36 37 40 42 0
36 37 41 42 0
36 38 39 40 0
36 38 39 41 0
36 38 39 42 0
36 38 40 41 0
36 38 40 42 0
36 38 41 42 0
36 39 40 41 0
36 39 40 42 0
36 39 41 42 0
36 40 41 42 0
37 38 39 40 0
37 38 39 41 0
37 38 39 42 0
37 38 40 41 0
37 38 40 42 0
37 38 41 42 0
37 39 40 41 0
37 39 40 42 0
37 39 41 42 0
37 40 41 42 0
38 39 40 41 0
38 39 40 42 0
38 39 41 42 0
38 40 41 42 0
39 40 41 42 0
43 44 45 46 47 48 49 0
50 51 52 53 54 55 0
50 51 52 53 54 56 0
50 51 52 53 55 56 0
50 51 52 54 55 56 0
50 51 53 54 55 56 0
50 52 53 54 55 56 0
51 52 53 54 55 56 0
57 58 59 60 61 62 0
57 58 59 60 61 63 0
57 58 59 60 62 63 0
57 58 59 61 62 63 0
57 58 60 61 62 63 0
57 59 60 61 62 63 0
58 59 60 61 62 63 0
64 65 66 67 68 69 70 0
71 72 73 74 75 0
71 72 73 74 76 0
71 72 73 74 77 0
71 72 73 75 76 0
71 72 73 75 77 0
71 72 73 76 77 0
71 72 74 75 76 0
71 72 74 75 77 0
71 72 74 76 77 0
71 72 75 76 77 0
71 73 74 75 76 0
71 73 74 75 77 0
71 73 74 76 77 0
71 73 75 76 77 0
71 74 75 76 77 0
72 73 74 75 76 0
72 73 74 75 77 0
72 73 74 76 77 0
72 73 75 76 77 0
72 74 75 76 77 0
73 74 75 76 77 0
78 79 80 81 82 83 84 0
85 86 87 88 89 90 91 0
92 93 94 95 96 0
92 93 94 95 97 0
92 93 94 95 98 0
92 93 94 96 97 0
92 93 94 96 98 0
92 93 94 97 98 0
92 93 95 96 97 0
92 93 95 96 98 0
92 93 95 97 98 0
92 93 96 97 98 0
92 94 95 96 97 0
92 94 95 96 98 0
92 94 95 97 98 0
92 94 96 97 98 0
92 95 96 97 98 0
93 94 95 96 97 0
93 94 95 96 98 0
93 94 95 97 98 0
93 94 96 97 98 0
93 95 96 97 98 0
94 95 96 97 98 0
99 100 101 102 103 104 105 0
106 107 108 109 0
106 107 108 110 0
106 107 108 111 0
106 107 108 112 0
106 107 109 110 0
106 107 109 111 0
106 107 109 112 0
106 107 110 111 0
106 107 110 112 0
106 107 111 112 0
106 108 109 110 0
106 108 109 111 0
106 108 109 112 0
106 108 110 111 0
106 108 110 112 0
106 108 111 112 0
106 109 110 111 0
106 109 110 112 0
106 109 111 112 0
106 110 111 112 0
107 108 109 110 0
107 108 109 111 0
107 108 109 112 0
107 108 110 111 0
107 108 110 112 0
107 108 111 112 0
107 109 110 111 0
107 109 110 112 0
107 109 111 112 0
107 110 111 112 0
108 109 110 111 0
108 109 110 112 0
108 109 111 112 0
108 110 111 112 0
109 110 111 112 0
113 114 115 116 117 118 119 0
120 121 122 123 124 125 126 0
127 128 129 130 131 132 133 0
134 135 136 137 138 139 140 0
141 142 143 144 145 146 147 0
148 149 150 151 152 0
148 149 150 151 153 0
148 149 150 151 154 0
148 149 150 152 153 0
148 149 150 152 154 0
148 149 150 153 154 0
148 149 151 152 153 0
148 149 151 152 154 0
148 149 151 153 154 0
148 149 152 153 154 0
148 150 151 152 153 0
148 150 151 152 154 0
148 150 151 153 154 0
148 150 152 153 154 0
148 151 152 153 154 0
149 150 151 152 153 0
149 150 151 152 154 0
149 150 151 153 154 0
149 150 152 153 154 0
149 151 152 153 154 0
150 151 152 153 154 0
155 156 157 158 159 160 161 0
162 163 164 165 166 167 168 0
169 170 171 172 173 174 175 0
